1	1	1	0	2	6	3	91	4	62	5	51	6	91	7	63
2	2	1	24	2	0	3	72	4	73	5	18	6	9	7	99
3	3	1	87	2	101	3	0	4	13	5	101	6	21	7	10
4	4	1	11	2	71	3	27	4	0	5	11	6	25	7	41
5	5	1	14	2	7	3	88	4	84	5	0	6	102	7	10
6	6	1	41	2	84	3	86	4	73	5	106	6	0	7	33
7	7	1	79	2	86	3	57	4	48	5	84	6	78	7	0